NAME: random-34-3326
TYPE: TSP
COMMENT: size=34 seed=3326
DIMENSION: 70
EDGE_WEIGHT_TYPE: EUC_2D
NODE_COORD_SECTION
+0 82 435
-0 82 435
+1 343 656
-1 412 949
+2 325 258
-2 515 421
+3 731 934
-3 243 611
+4 498 479
-4 915 878
+5 742 346
-5 308 364
+6 902 614
-6 939 50
+7 215 406
-7 153 131
+8 728 463
-8 204 481
+9 866 369
-9 242 541
+10 55 323
-10 377 801
+11 708 943
-11 628 192
+12 415 585
-12 123 442
+13 678 386
-13 250 949
+14 578 601
-14 252 331
+15 196 450
-15 75 357
+16 319 704
-16 907 261
+17 984 643
-17 893 587
+18 123 5
-18 623 396
+19 75 334
-19 346 127
+20 299 492
-20 410 343
+21 653 399
-21 374 140
+22 398 263
-22 863 452
+23 581 103
-23 150 505
+24 26 556
-24 723 437
+25 137 690
-25 61 257
+26 45 761
-26 506 899
+27 125 625
-27 15 570
+28 802 636
-28 544 548
+29 735 645
-29 649 161
+30 366 871
-30 821 689
+31 187 648
-31 845 121
+32 109 380
-32 442 294
+33 232 650
-33 941 663
+34 256 82
-34 802 362
PRECEDENCE_SECTION
+0 -0
+1 -1
+2 -2
+3 -3
+4 -4
+5 -5
+6 -6
+7 -7
+8 -8
+9 -9
+10 -10
+11 -11
+12 -12
+13 -13
+14 -14
+15 -15
+16 -16
+17 -17
+18 -18
+19 -19
+20 -20
+21 -21
+22 -22
+23 -23
+24 -24
+25 -25
+26 -26
+27 -27
+28 -28
+29 -29
+30 -30
+31 -31
+32 -32
+33 -33
+34 -34
EOF
